6 94 95 92 98 85 61 16 86 38 44 14 42 43 15 41 22 74 73 58 
27 69 30 90 63 64 11 62 88 52 
89 60 96 99 93 91 100 37 97 13 
53 21 72 75 23 67 39 56 
28 76 29 12 40 2 57 87 59 5 84 17 45 46 36 49 19 47 48 10 32 70 1 
18 83 8 82 7 31 50 33 78 34 35 71 65 66 20 51 9 81 79 3 77 68 80 24 54 55 25 4 26 
